numero_plantas = 3;
numero_clientes = 2;
numero_dias = 4;
costos = [30.0, 40.0, 50.0];
capacidades = [300.0, 1500.0, 600.0];
G = 50.0;
demanda = [| 500.0, 600.0, 700.0, 800.0
           |400.0, 500.0, 600.0, 700.0|];
pagos = [120.0, 110.0];
porcentaje_regimen_alto = [100.0, 100.0, 100.0];
max_dias_consecutivos_regimen = [1, 3, 2];